50 1225
1 2 1044
1 3 343
1 4 73
1 5 597
1 6 533
1 7 701
1 8 148
1 9 215
1 10 314
1 11 773
1 12 1117
1 13 509
1 14 319
1 15 870
1 16 318
1 17 239
1 18 419
1 19 709
1 20 819
1 21 363
1 22 776
1 23 542
1 24 871
1 25 494
1 26 115
1 27 323
1 28 582
1 29 328
1 30 399
1 31 492
1 32 612
1 33 892
1 34 834
1 35 712
1 36 763
1 37 741
1 38 327
1 39 641
1 40 819
1 41 684
1 42 159
1 43 166
1 44 839
1 45 217
1 46 705
1 47 841
1 48 280
1 49 916
1 50 168
2 3 964
2 4 1098
2 5 643
2 6 548
2 7 873
2 8 896
2 9 928
2 10 840
2 11 488
2 12 128
2 13 536
2 14 754
2 15 258
2 16 841
2 17 922
2 18 675
2 19 903
2 20 673
2 21 922
2 22 408
2 23 526
2 24 283
2 25 637
2 26 928
2 27 732
2 28 511
2 29 848
2 30 934
2 31 798
2 32 482
2 33 320
2 34 726
2 35 444
2 36 577
2 37 521
2 38 1023
2 39 814
2 40 330
2 41 363
2 42 1054
2 43 1206
2 44 345
2 45 1217
2 46 442
2 47 276
2 48 764
2 49 320
2 50 1108
3 4 411
3 5 744
3 6 419
3 7 934
3 8 306
3 9 487
3 10 142
3 11 864
3 12 1067
3 13 476
3 14 462
3 15 870
3 16 139
3 17 508
3 18 299
3 19 950
3 20 536
3 21 45
3 22 832
3 23 585
3 24 722
3 25 616
3 26 316
3 27 429
3 28 452
3 29 125
3 30 62
3 31 707
3 32 482
3 33 922
3 34 537
3 35 542
3 36 889
3 37 523
3 38 61
3 39 324
3 40 666
3 41 654
3 42 493
3 43 403
3 44 672
3 45 346
3 46 540
3 47 707
3 48 332
3 49 946
3 50 243
4 5 617
4 6 599
4 7 692
4 8 210
4 9 220
4 10 388
4 11 802
4 12 1166
4 13 566
4 14 357
4 15 914
4 16 392
4 17 241
4 18 488
4 19 697
4 20 892
4 21 434
4 22 812
4 23 587
4 24 935
4 25 524
4 26 176
4 27 369
4 28 649
4 29 401
4 30 469
4 31 496
4 32 678
4 33 930
4 34 908
4 35 780
4 36 784
4 37 813
4 38 390
4 39 714
4 40 884
4 41 736
4 42 121
4 43 141
4 44 906
4 45 221
4 46 773
4 47 904
4 48 340
4 49 954
4 50 210
5 6 477
5 7 266
5 8 489
5 9 397
5 10 608
5 11 200
5 12 657
5 13 358
5 14 294
5 15 393
5 16 612
5 17 379
5 18 505
5 19 295
5 20 873
5 21 724
5 22 247
5 23 224
5 24 643
5 25 129
5 26 506
5 27 317
5 28 502
5 29 629
5 30 759
5 31 163
5 32 507
5 33 367
5 34 918
5 35 602
5 36 166
5 37 700
5 38 779
5 39 840
5 40 622
5 41 350
5 42 523
5 43 756
5 44 658
5 45 813
5 46 590
5 47 601
5 48 413
5 49 385
5 50 737
6 7 733
6 8 389
6 9 493
6 10 292
6 11 515
6 12 648
6 13 119
6 14 335
6 15 462
6 16 292
6 17 500
6 18 127
6 19 759
6 20 402
6 21 378
6 22 458
6 23 256
6 24 338
6 25 364
6 26 422
6 27 292
6 28 49
6 29 300
6 30 396
6 31 535
6 32 79
6 33 525
6 34 443
6 35 185
6 36 570
6 37 249
6 38 476
6 39 375
6 40 285
6 41 247
6 42 594
6 43 683
6 44 306
6 45 679
6 46 176
6 47 311
6 48 265
6 49 549
6 50 567
7 8 640
7 9 486
7 10 810
7 11 385
7 12 860
7 13 615
7 14 475
7 15 614
7 16 815
7 17 462
7 18 740
7 19 30
7 20 1133
7 21 923
7 22 464
7 23 487
7 24 906
7 25 368
7 26 644
7 27 514
7 28 763
7 29 832
7 30 961
7 31 226
7 32 770
7 33 563
7 34 1176
7 35 867
7 36 300
7 37 964
7 38 956
7 39 1081
7 40 888
7 41 614
7 42 574
7 43 833
7 44 923
7 45 912
7 46 856
7 47 864
7 48 609
7 49 572
7 50 864
8 9 182
8 10 219
8 11 650
8 12 971
8 13 361
8 14 196
8 15 728
8 16 223
8 17 203
8 18 282
8 19 654
8 20 704
8 21 307
8 22 643
8 23 402
8 24 725
8 25 373
8 26 33
8 27 187
8 28 439
8 29 238
8 30 347
8 31 416
8 32 468
8 33 755
8 34 726
8 35 571
8 36 651
8 37 609
8 38 317
8 39 551
8 40 674
8 41 537
8 42 224
8 43 310
8 44 696
8 45 339
8 46 563
8 47 695
8 48 132
8 49 780
8 50 249
9 10 396
9 11 587
9 12 981
9 13 423
9 14 175
9 15 720
9 16 401
9 17 23
9 18 417
9 19 494
9 20 856
9 21 489
9 22 605
9 23 402
9 24 807
9 25 316
9 26 172
9 27 208
9 28 542
9 29 417
9 30 529
9 31 277
9 32 567
9 33 727
9 34 883
9 35 678
9 36 564
9 37 736
9 38 494
9 39 722
9 40 762
9 41 566
9 42 130
9 43 362
9 44 789
9 45 430
9 46 668
9 47 770
9 48 239
9 49 749
9 50 378
10 11 722
10 12 938
10 13 336
10 14 335
10 15 732
10 16 4
10 17 415
10 18 165
10 19 829
10 20 504
10 21 115
10 22 690
10 23 443
10 24 616
10 25 479
10 26 241
10 27 298
10 28 331
10 29 21
10 30 151
10 31 584
10 32 363
10 33 781
10 34 520
10 35 440
10 36 749
10 37 444
10 38 191
10 39 333
10 40 560
10 41 517
10 42 438
10 43 428
10 44 572
10 45 403
10 46 436
10 47 595
10 48 201
10 49 806
10 50 289
11 12 477
11 13 408
11 14 455
11 15 230
11 16 725
11 17 571
11 18 586
11 19 416
11 20 871
11 21 836
11 22 86
11 23 280
11 24 565
11 25 279
11 26 672
11 27 464
11 28 522
11 29 740
11 30 866
11 31 362
11 32 515
11 33 179
11 34 922
11 35 582
11 36 90
11 37 689
11 38 907
11 39 890
11 40 561
11 41 302
11 42 716
11 43 937
11 44 597
11 45 985
11 46 571
11 47 524
11 48 548
11 49 192
11 50 899
12 13 617
12 14 813
12 15 266
12 16 939
12 17 973
12 18 772
12 19 890
12 20 801
12 21 1026
12 22 410
12 23 581
12 24 410
12 25 675
12 26 1002
12 27 797
12 28 616
12 29 948
12 30 1041
12 31 819
12 32 588
12 33 297
12 34 854
12 35 563
12 36 560
12 37 645
12 38 1125
12 39 936
12 40 454
12 41 434
12 42 1111
12 43 1282
12 44 472
12 45 1301
12 46 559
12 47 399
12 48 842
12 49 287
12 50 1195
13 14 251
13 15 396
13 16 338
13 17 424
13 18 182
13 19 641
13 20 518
13 21 442
13 22 361
13 23 138
13 24 383
13 25 247
13 26 393
13 27 215
13 28 149
13 29 351
13 30 467
13 31 423
13 32 162
13 33 445
13 34 561
13 35 271
13 36 456
13 37 355
13 38 527
13 39 489
13 40 340
13 41 185
13 42 538
13 43 670
13 44 369
13 45 684
13 46 260
13 47 347
13 48 229
13 49 470
13 50 578
14 15 557
14 16 339
14 17 174
14 18 288
14 19 494
14 20 722
14 21 448
14 22 456
14 23 231
14 24 634
14 25 177
14 26 216
14 27 46
14 28 381
14 29 357
14 30 486
14 31 249
14 32 403
14 33 573
14 34 756
14 35 515
14 36 454
14 37 584
14 38 490
14 39 623
14 40 591
14 41 391
14 42 300
14 43 485
14 44 620
14 45 529
14 46 504
14 47 597
14 48 134
14 49 597
14 50 446
15 16 733
15 17 710
15 18 571
15 19 645
15 20 737
15 21 833
15 22 151
15 23 327
15 24 376
15 25 410
15 26 757
15 27 546
15 28 446
15 29 745
15 30 855
15 31 553
15 32 426
15 33 85
15 34 790
15 35 452
15 36 320
15 37 556
15 38 923
15 39 810
15 40 390
15 41 216
15 42 851
15 43 1036
15 44 423
15 45 1065
15 46 443
15 47 341
15 48 604
15 49 101
15 50 964
16 17 420
16 18 166
16 19 833
16 20 501
16 21 112
16 22 692
16 23 446
16 24 615
16 25 483
16 26 246
16 27 302
16 28 331
16 29 17
16 30 147
16 31 589
16 32 362
16 33 783
16 34 516
16 35 439
16 36 752
16 37 442
16 38 189
16 39 328
16 40 559
16 41 519
16 42 442
16 43 431
16 44 571
16 45 404
16 46 435
16 47 594
16 48 205
16 49 808
16 50 291
17 18 428
17 19 470
17 20 867
17 21 510
17 22 592
17 23 395
17 24 808
17 25 303
17 26 195
17 27 210
17 28 548
17 29 436
17 30 550
17 31 255
17 32 572
17 33 714
17 34 896
17 35 683
17 36 546
17 37 744
17 38 516
17 39 739
17 40 765
17 41 561
17 42 144
17 43 383
17 44 792
17 45 453
17 46 673
17 47 771
17 48 251
17 49 736
17 50 402
18 19 763
18 20 439
18 21 261
18 22 543
18 23 307
18 24 461
18 25 379
18 26 314
18 27 242
18 28 171
18 29 175
18 30 285
18 31 524
18 32 203
18 33 626
18 34 469
18 35 294
18 36 626
18 37 327
18 38 353
18 39 341
18 40 407
18 41 355
18 42 500
18 43 561
18 44 424
18 45 553
18 46 288
18 47 437
18 48 177
18 49 650
18 50 440
19 20 1160
19 21 940
19 22 495
19 23 515
19 24 937
19 25 394
19 26 656
19 27 534
19 28 789
19 29 851
19 30 979
19 31 244
19 32 798
19 33 593
19 34 1203
19 35 896
19 36 330
19 37 992
19 38 970
19 39 1104
19 40 917
19 41 644
19 42 578
19 43 836
19 44 953
19 45 918
19 46 884
19 47 894
19 48 628
19 49 602
19 50 873
20 21 495
20 22 797
20 23 648
20 24 392
20 25 765
20 26 733
20 27 676
20 28 370
20 29 493
20 30 477
20 31 937
20 32 366
20 33 818
20 34 53
20 35 290
20 36 942
20 37 183
20 38 592
20 39 226
20 40 356
20 41 570
20 42 928
20 43 926
20 44 332
20 45 881
20 46 300
20 47 411
20 48 616
20 49 838
20 50 772
21 22 800
21 23 556
21 24 678
21 25 595
21 26 321
21 27 412
21 28 410
21 29 95
21 30 39
21 31 696
21 32 440
21 33 887
21 34 498
21 35 498
21 36 865
21 37 478
21 38 106
21 39 288
21 40 621
21 41 617
21 42 507
21 43 437
21 44 628
21 45 385
21 46 496
21 47 663
21 48 315
21 49 912
21 50 279
22 23 249
22 24 480
22 25 289
22 26 668
22 27 456
22 28 459
22 29 706
22 30 828
22 31 410
22 32 448
22 33 123
22 34 848
22 35 507
22 36 175
22 37 614
22 38 879
22 39 830
22 40 478
22 41 228
22 42 736
22 43 942
22 44 514
22 45 982
22 46 496
22 47 440
22 48 531
22 49 144
22 50 890
23 24 448
23 25 133
23 26 429
23 27 218
23 28 278
23 29 461
23 30 585
23 31 317
23 32 283
23 33 354
23 34 694
23 35 381
23 36 320
23 37 477
23 38 630
23 39 627
23 40 417
23 41 169
23 42 530
23 43 708
23 44 451
23 45 740
23 46 369
23 47 407
23 48 283
23 49 379
23 50 644
24 25 581
24 26 758
24 27 599
24 28 290
24 29 618
24 30 683
24 31 764
24 32 259
24 33 462
24 34 445
24 35 180
24 36 650
24 37 239
24 38 783
24 39 535
24 40 56
24 41 292
24 42 920
24 43 1021
24 44 62
24 45 1014
24 46 181
24 47 42
24 48 596
24 49 476
24 50 901
25 26 394
25 27 193
25 28 396
25 29 500
25 30 630
25 31 184
25 32 406
25 33 411
25 34 808
25 35 509
25 36 278
25 37 601
25 38 652
25 39 717
25 40 551
25 41 296
25 42 446
25 43 658
25 44 584
25 45 706
25 46 498
25 47 539
25 48 286
25 49 433
25 50 623
26 27 212
26 28 472
26 29 260
26 30 361
26 31 423
26 32 502
26 33 782
26 34 754
26 35 604
26 36 669
26 37 641
26 38 321
26 39 575
26 40 707
26 41 568
26 42 196
26 43 280
26 44 729
26 45 314
26 46 596
26 47 728
26 48 164
26 49 806
26 50 231
27 28 339
27 29 319
27 30 449
27 31 290
27 32 362
27 33 569
27 34 710
27 35 473
27 36 472
27 37 540
27 38 461
27 39 578
27 40 554
27 41 368
27 42 325
27 43 490
27 44 582
27 45 526
27 46 463
27 47 563
27 48 97
27 49 593
27 50 435
28 29 338
28 30 424
28 31 572
28 32 31
28 33 514
28 34 415
28 35 135
28 36 583
28 37 207
28 38 511
28 39 371
28 40 237
28 41 237
28 42 644
28 43 731
28 44 257
28 45 725
28 46 126
28 47 265
28 48 315
28 49 538
28 50 612
29 30 130
29 31 606
29 32 368
29 33 796
29 34 506
29 35 441
29 36 769
29 37 441
29 38 178
29 39 315
29 40 562
29 41 530
29 42 455
29 43 436
29 44 573
29 45 405
29 46 438
29 47 599
29 48 222
29 49 821
29 50 292
30 31 734
30 32 453
30 33 911
30 34 476
30 35 503
30 36 897
30 37 475
30 38 114
30 39 263
30 40 627
30 41 639
30 42 546
30 43 465
30 44 631
30 45 407
30 46 502
30 47 671
30 48 352
30 49 936
30 50 305
31 32 585
31 33 531
31 34 977
31 35 691
31 36 312
31 37 779
31 38 730
31 39 865
31 40 735
31 41 476
31 42 388
31 43 638
31 44 769
31 45 708
31 46 680
31 47 723
31 48 384
31 49 549
31 50 649
32 33 497
32 34 413
32 35 111
32 36 579
32 37 194
32 38 541
32 39 386
32 40 206
32 41 222
32 42 671
32 43 762
32 44 227
32 45 756
32 46 101
32 47 234
32 48 343
32 49 520
32 50 643
33 34 871
33 35 532
33 36 263
33 37 637
33 38 972
33 39 883
33 40 475
33 41 278
33 42 858
33 43 1058
33 44 507
33 45 1094
33 46 523
33 47 427
33 48 637
33 49 24
33 50 998
34 35 342
34 36 991
34 37 235
34 38 590
34 39 216
34 40 409
34 41 620
34 42 950
34 43 933
34 44 385
34 45 883
34 46 352
34 47 465
34 48 645
34 49 891
34 50 777
35 36 655
35 37 107
35 38 603
35 39 373
35 40 124
35 41 280
35 42 779
35 43 855
35 44 131
35 45 842
35 46 11
35 47 170
35 48 450
35 49 552
35 50 728
36 37 760
36 38 928
36 39 944
36 40 643
36 41 376
36 42 688
36 43 923
36 44 679
36 45 979
36 46 644
36 47 609
36 48 563
36 49 272
36 50 900
37 38 584
37 39 296
37 40 191
37 41 387
37 42 827
37 43 872
37 44 177
37 45 846
37 46 117
37 47 246
37 48 499
37 49 657
37 50 733
38 39 375
38 40 727
38 41 708
38 42 484
38 43 363
38 44 734
38 45 297
38 46 601
38 47 767
38 48 365
38 49 997
38 50 203
39 40 484
39 41 608
39 42 771
39 43 726
39 44 474
39 45 670
39 46 378
39 47 538
39 48 496
39 49 906
39 50 567
40 41 274
40 42 873
40 43 968
40 44 36
40 45 959
40 46 125
40 47 55
40 48 547
40 49 492
40 50 846
41 42 691
41 43 848
41 44 309
41 45 867
41 46 269
41 47 250
41 48 407
41 49 302
41 50 762
42 43 258
42 44 898
42 45 343
42 46 771
42 47 885
42 48 329
42 49 880
42 50 323
43 44 985
43 45 99
43 46 849
43 47 994
43 48 441
43 49 1082
43 50 160
44 45 973
44 46 136
44 47 82
44 48 570
44 49 524
44 50 860
45 46 837
45 47 990
45 48 461
45 49 1119
45 50 113
46 47 169
46 48 441
46 49 543
46 50 723
47 48 565
47 49 442
47 50 877
48 49 662
48 50 361
49 50 1023
